10J3M/DAT/10J3MULL-7.dat
10 3
7.9277 7.9277
15.2655 15.2655
41.4365 41.4365
34.142 34.142
37.1856 37.1856
18.867 18.867
37.6979 37.6979
34.0964 34.0964
14.1994 14.1994
47.4154 47.4154
96.0778