10J3M/SOL/10J3MULL-7.sol
solution status: optimal solution found
objective value:                              58.9809
x#1#3                                               1 	(obj:0)
x#2#1                                               1 	(obj:0)
x#3#2                                               1 	(obj:0)
x#4#2                                               1 	(obj:0)
x#5#1                               0.798231983751477 	(obj:0)
x#5#2                               0.201768016248523 	(obj:0)
x#6#1                                               1 	(obj:0)
x#7#1                                               1 	(obj:0)
x#8#1                                               1 	(obj:0)
x#9#2                               0.564577352641039 	(obj:0)
x#9#3                               0.435422647358961 	(obj:0)
x#10#1                                              1 	(obj:0)
z                                             58.9809 	(obj:1)
